4º Periodo/Pesquisa Operacional/Arenales1.mps
NAME Arenales
ROWS
 N  OBJ
 G  protein 
 G  calcium 
 E  unit    
COLUMNS
    x1        OBJ       0.56
    x1        protein   0.2
    x1        calcium   0.6
    x1        unit      1
    x2        OBJ       0.81
    x2        protein   0.5
    x2        calcium   0.4
    x2        unit      1
    x3        OBJ       0.46
    x3        protein   0.4
    x3        calcium   0.4
    x3        unit      1
RHS
    RHS1      protein   0.3
    RHS1      calcium   0.5
    RHS1      unit      1
BOUNDS
ENDATA
